(set-logic HORN)
(set-info :source |
    Benchmark: C_VC
    Output by Princess (http://www.philipp.ruemmer.org/princess.shtml)
|)
(set-info :status unsat)
(declare-fun inv_main18 (Int Int Int Int Int Int Int) Bool)
(declare-fun inv_main19 (Int Int Int Int Int Int Int) Bool)
(declare-fun inv_main20 (Int Int Int Int Int Int Int) Bool)
(declare-fun inv_main39 (Int Int Int Int Int Int Int) Bool)
(declare-fun inv_main4 (Int Int Int Int Int Int Int) Bool)
(assert (forall ((var0 Int) (var1 Int) (var2 Int) (var3 Int) (var4 Int) (var5 Int)) (inv_main4 0 var5 var4 var3 var2 var1 var0)))
(assert (forall ((var0 Int) (var1 Int) (var2 Int) (var3 Int) (var4 Int) (var5 Int) (var6 Int)) (or (not (and (inv_main18 var6 var5 var4 var3 var2 var1 var0) (not (<= 0 (+ (+ 5 (* (- 1) var6)) (- 1)))))) (inv_main19 (+ var6 1) var5 var4 var3 var2 var1 var0))))
(assert (forall ((var0 Int) (var1 Int) (var2 Int) (var3 Int) (var4 Int) (var5 Int) (var6 Int)) (or (not (and (inv_main20 var6 var5 var4 var3 var2 var1 var0) (or (= var3 0) (= var2 0)))) (inv_main19 var6 var5 var4 var3 var2 var1 var0))))
(assert (forall ((var0 Int) (var1 Int) (var2 Int) (var3 Int) (var4 Int) (var5 Int) (var6 Int)) (or (not (inv_main19 var6 var5 var4 var3 var2 var1 var0)) (inv_main39 var6 var5 var4 var3 var2 var1 var0))))
(assert (forall ((var0 Int) (var1 Int) (var2 Int) (var3 Int) (var4 Int) (var5 Int) (var6 Int)) (or (not (and (inv_main18 var6 var5 var4 var3 var2 var1 var0) (<= 0 (+ (+ 5 (* (- 1) var6)) (- 1))))) (inv_main20 (+ var6 1) var5 var4 var3 var2 var1 var0))))
(assert (forall ((var0 Int) (var1 Int) (var2 Int) (var3 Int) (var4 Int) (var5 Int) (var6 Int) (var7 Int) (var8 Int) (var9 Int) (var10 Int) (var11 Int) (var12 Int) (var13 Int) (var14 Int) (var15 Int) (var16 Int)) (or (not (and (inv_main4 var16 var15 var14 var13 var12 var11 var10) (and (not (= var9 0)) (and (and (and (and (and (and (and (= var8 var16) (= var7 var6)) (= var5 var4)) (= var3 var13)) (= var2 var12)) (= var1 var11)) (= var0 var10)) (or (and (<= 0 (+ var4 (- 1))) (= var9 1)) (and (not (<= 0 (+ var4 (- 1)))) (= var9 0))))))) (inv_main18 var8 var7 var5 var7 var5 1 0))))
(assert (forall ((var0 Int) (var1 Int) (var2 Int) (var3 Int) (var4 Int) (var5 Int) (var6 Int) (var7 Int) (var8 Int) (var9 Int) (var10 Int) (var11 Int) (var12 Int) (var13 Int) (var14 Int) (var15 Int) (var16 Int) (var17 Int) (var18 Int) (var19 Int) (var20 Int) (var21 Int) (var22 Int) (var23 Int) (var24 Int) (var25 Int) (var26 Int)) (or (not (and (inv_main20 var20 var19 var18 var17 var16 var15 var14) (and (and (and (and (and (and (and (and (and (<= 0 (+ (+ 2 (* (- 1) var21)) (- 1))) (<= 0 (+ (+ 2 (* 1 var21)) (- 1)))) (or (not (<= 0 (+ var21 (- 1)))) (<= 0 (+ var17 (- 1))))) (or (not (<= 0 (+ (* (- 1) var21) (- 1)))) (<= 0 (+ (* (- 1) var17) (- 1))))) (= var17 (+ (* 2 var22) var21))) (= var21 0)) (and (and (and (and (and (<= 0 (+ (+ 2 (* (- 1) var23)) (- 1))) (<= 0 (+ (+ 2 (* 1 var23)) (- 1)))) (or (not (<= 0 (+ var23 (- 1)))) (<= 0 (+ var16 (- 1))))) (or (not (<= 0 (+ (* (- 1) var23) (- 1)))) (<= 0 (+ (* (- 1) var16) (- 1))))) (= var16 (+ (* 2 var24) var23))) (= var23 0))) (and (not (= var17 0)) (not (= var16 0)))) (and (and (and (and (and (and (= var13 var20) (= var12 var19)) (= var11 var18)) (and (and (and (and (<= 0 (+ (+ 2 (* (- 1) (+ var17 (* (- 2) var25)))) (- 1))) (<= 0 (+ (+ 2 (* 1 (+ var17 (* (- 2) var25)))) (- 1)))) (or (not (<= 0 (+ (+ var17 (* (- 2) var25)) (- 1)))) (<= 0 (+ var17 (- 1))))) (or (not (<= 0 (+ (* (- 1) (+ var17 (* (- 2) var25))) (- 1)))) (<= 0 (+ (* (- 1) var17) (- 1))))) (= var10 var25))) (= var9 var16)) (= var8 var15)) (= var7 var14))) (and (and (and (and (and (and (= var6 var13) (= var5 var12)) (= var4 var11)) (= var3 var10)) (and (and (and (and (<= 0 (+ (+ 2 (* (- 1) (+ var9 (* (- 2) var26)))) (- 1))) (<= 0 (+ (+ 2 (* 1 (+ var9 (* (- 2) var26)))) (- 1)))) (or (not (<= 0 (+ (+ var9 (* (- 2) var26)) (- 1)))) (<= 0 (+ var9 (- 1))))) (or (not (<= 0 (+ (* (- 1) (+ var9 (* (- 2) var26))) (- 1)))) (<= 0 (+ (* (- 1) var9) (- 1))))) (= var2 var26))) (= var1 var8)) (= var0 var7))))) (inv_main18 var6 var5 var4 var3 var2 (* 4 var1) var0))))
(assert (forall ((var0 Int) (var1 Int) (var2 Int) (var3 Int) (var4 Int) (var5 Int) (var6 Int) (var7 Int) (var8 Int) (var9 Int) (var10 Int) (var11 Int) (var12 Int) (var13 Int) (var14 Int)) (or (not (and (inv_main20 var6 var5 var4 var3 var2 var1 var0) (and (and (and (and (and (and (and (<= 0 (+ (+ 2 (* (- 1) var7)) (- 1))) (<= 0 (+ (+ 2 (* 1 var7)) (- 1)))) (or (not (<= 0 (+ var7 (- 1)))) (<= 0 (+ var3 (- 1))))) (or (not (<= 0 (+ (* (- 1) var7) (- 1)))) (<= 0 (+ (* (- 1) var3) (- 1))))) (= var3 (+ (* 2 var8) var7))) (= var7 1)) (and (and (and (and (and (<= 0 (+ (+ 2 (* (- 1) var9)) (- 1))) (<= 0 (+ (+ 2 (* 1 var9)) (- 1)))) (or (not (<= 0 (+ var9 (- 1)))) (<= 0 (+ var2 (- 1))))) (or (not (<= 0 (+ (* (- 1) var9) (- 1)))) (<= 0 (+ (* (- 1) var2) (- 1))))) (= var2 (+ (* 2 var10) var9))) (= var9 0))) (and (or (not (or (not (and (and (and (and (<= 0 (+ (+ 2 (* (- 1) var11)) (- 1))) (<= 0 (+ (+ 2 (* 1 var11)) (- 1)))) (or (not (<= 0 (+ var11 (- 1)))) (<= 0 (+ var3 (- 1))))) (or (not (<= 0 (+ (* (- 1) var11) (- 1)))) (<= 0 (+ (* (- 1) var3) (- 1))))) (= var3 (+ (* 2 var12) var11)))) (= var11 0))) (not (or (not (and (and (and (and (<= 0 (+ (+ 2 (* (- 1) var13)) (- 1))) (<= 0 (+ (+ 2 (* 1 var13)) (- 1)))) (or (not (<= 0 (+ var13 (- 1)))) (<= 0 (+ var2 (- 1))))) (or (not (<= 0 (+ (* (- 1) var13) (- 1)))) (<= 0 (+ (* (- 1) var2) (- 1))))) (= var2 (+ (* 2 var14) var13)))) (= var13 0)))) (and (not (= var3 0)) (not (= var2 0))))))) (inv_main18 var6 var5 var4 (+ var3 (- 1)) var2 var1 (+ var0 (* var2 var1))))))
(assert (forall ((var0 Int) (var1 Int) (var2 Int) (var3 Int) (var4 Int) (var5 Int) (var6 Int) (var7 Int) (var8 Int) (var9 Int) (var10 Int) (var11 Int) (var12 Int) (var13 Int) (var14 Int) (var15 Int) (var16 Int) (var17 Int) (var18 Int)) (or (not (and (inv_main20 var6 var5 var4 var3 var2 var1 var0) (and (and (and (and (and (and (and (<= 0 (+ (+ 2 (* (- 1) var7)) (- 1))) (<= 0 (+ (+ 2 (* 1 var7)) (- 1)))) (or (not (<= 0 (+ var7 (- 1)))) (<= 0 (+ var3 (- 1))))) (or (not (<= 0 (+ (* (- 1) var7) (- 1)))) (<= 0 (+ (* (- 1) var3) (- 1))))) (= var3 (+ (* 2 var8) var7))) (= var7 0)) (and (and (and (and (and (<= 0 (+ (+ 2 (* (- 1) var9)) (- 1))) (<= 0 (+ (+ 2 (* 1 var9)) (- 1)))) (or (not (<= 0 (+ var9 (- 1)))) (<= 0 (+ var2 (- 1))))) (or (not (<= 0 (+ (* (- 1) var9) (- 1)))) (<= 0 (+ (* (- 1) var2) (- 1))))) (= var2 (+ (* 2 var10) var9))) (= var9 1))) (and (or (not (or (not (and (and (and (and (<= 0 (+ (+ 2 (* (- 1) var11)) (- 1))) (<= 0 (+ (+ 2 (* 1 var11)) (- 1)))) (or (not (<= 0 (+ var11 (- 1)))) (<= 0 (+ var3 (- 1))))) (or (not (<= 0 (+ (* (- 1) var11) (- 1)))) (<= 0 (+ (* (- 1) var3) (- 1))))) (= var3 (+ (* 2 var12) var11)))) (= var11 1))) (not (or (not (and (and (and (and (<= 0 (+ (+ 2 (* (- 1) var13)) (- 1))) (<= 0 (+ (+ 2 (* 1 var13)) (- 1)))) (or (not (<= 0 (+ var13 (- 1)))) (<= 0 (+ var2 (- 1))))) (or (not (<= 0 (+ (* (- 1) var13) (- 1)))) (<= 0 (+ (* (- 1) var2) (- 1))))) (= var2 (+ (* 2 var14) var13)))) (= var13 0)))) (and (or (not (or (not (and (and (and (and (<= 0 (+ (+ 2 (* (- 1) var15)) (- 1))) (<= 0 (+ (+ 2 (* 1 var15)) (- 1)))) (or (not (<= 0 (+ var15 (- 1)))) (<= 0 (+ var3 (- 1))))) (or (not (<= 0 (+ (* (- 1) var15) (- 1)))) (<= 0 (+ (* (- 1) var3) (- 1))))) (= var3 (+ (* 2 var16) var15)))) (= var15 0))) (not (or (not (and (and (and (and (<= 0 (+ (+ 2 (* (- 1) var17)) (- 1))) (<= 0 (+ (+ 2 (* 1 var17)) (- 1)))) (or (not (<= 0 (+ var17 (- 1)))) (<= 0 (+ var2 (- 1))))) (or (not (<= 0 (+ (* (- 1) var17) (- 1)))) (<= 0 (+ (* (- 1) var2) (- 1))))) (= var2 (+ (* 2 var18) var17)))) (= var17 0)))) (and (not (= var3 0)) (not (= var2 0)))))))) (inv_main18 var6 var5 var4 var3 (+ var2 (- 1)) var1 (+ var0 (* var3 var1))))))
(assert (forall ((var0 Int) (var1 Int) (var2 Int) (var3 Int) (var4 Int) (var5 Int) (var6 Int) (var7 Int) (var8 Int) (var9 Int) (var10 Int) (var11 Int) (var12 Int) (var13 Int) (var14 Int) (var15 Int) (var16 Int) (var17 Int) (var18 Int)) (or (not (and (inv_main20 var6 var5 var4 var3 var2 var1 var0) (and (or (not (or (not (and (and (and (and (<= 0 (+ (+ 2 (* (- 1) var7)) (- 1))) (<= 0 (+ (+ 2 (* 1 var7)) (- 1)))) (or (not (<= 0 (+ var7 (- 1)))) (<= 0 (+ var3 (- 1))))) (or (not (<= 0 (+ (* (- 1) var7) (- 1)))) (<= 0 (+ (* (- 1) var3) (- 1))))) (= var3 (+ (* 2 var8) var7)))) (= var7 0))) (not (or (not (and (and (and (and (<= 0 (+ (+ 2 (* (- 1) var9)) (- 1))) (<= 0 (+ (+ 2 (* 1 var9)) (- 1)))) (or (not (<= 0 (+ var9 (- 1)))) (<= 0 (+ var2 (- 1))))) (or (not (<= 0 (+ (* (- 1) var9) (- 1)))) (<= 0 (+ (* (- 1) var2) (- 1))))) (= var2 (+ (* 2 var10) var9)))) (= var9 1)))) (and (or (not (or (not (and (and (and (and (<= 0 (+ (+ 2 (* (- 1) var11)) (- 1))) (<= 0 (+ (+ 2 (* 1 var11)) (- 1)))) (or (not (<= 0 (+ var11 (- 1)))) (<= 0 (+ var3 (- 1))))) (or (not (<= 0 (+ (* (- 1) var11) (- 1)))) (<= 0 (+ (* (- 1) var3) (- 1))))) (= var3 (+ (* 2 var12) var11)))) (= var11 1))) (not (or (not (and (and (and (and (<= 0 (+ (+ 2 (* (- 1) var13)) (- 1))) (<= 0 (+ (+ 2 (* 1 var13)) (- 1)))) (or (not (<= 0 (+ var13 (- 1)))) (<= 0 (+ var2 (- 1))))) (or (not (<= 0 (+ (* (- 1) var13) (- 1)))) (<= 0 (+ (* (- 1) var2) (- 1))))) (= var2 (+ (* 2 var14) var13)))) (= var13 0)))) (and (or (not (or (not (and (and (and (and (<= 0 (+ (+ 2 (* (- 1) var15)) (- 1))) (<= 0 (+ (+ 2 (* 1 var15)) (- 1)))) (or (not (<= 0 (+ var15 (- 1)))) (<= 0 (+ var3 (- 1))))) (or (not (<= 0 (+ (* (- 1) var15) (- 1)))) (<= 0 (+ (* (- 1) var3) (- 1))))) (= var3 (+ (* 2 var16) var15)))) (= var15 0))) (not (or (not (and (and (and (and (<= 0 (+ (+ 2 (* (- 1) var17)) (- 1))) (<= 0 (+ (+ 2 (* 1 var17)) (- 1)))) (or (not (<= 0 (+ var17 (- 1)))) (<= 0 (+ var2 (- 1))))) (or (not (<= 0 (+ (* (- 1) var17) (- 1)))) (<= 0 (+ (* (- 1) var2) (- 1))))) (= var2 (+ (* 2 var18) var17)))) (= var17 0)))) (and (not (= var3 0)) (not (= var2 0)))))))) (inv_main18 var6 var5 var4 (+ var3 (- 1)) (+ var2 (- 1)) var1 (+ var0 (* (+ (+ (+ var3 (- 1)) (+ var2 (- 1))) 1) var1))))))
(assert (forall ((var0 Int) (var1 Int) (var2 Int) (var3 Int) (var4 Int) (var5 Int) (var6 Int)) (not (and (inv_main20 var6 var5 var4 var3 var2 var1 var0) (not (= (+ var0 (* (* var3 var2) var1)) (* var5 var4)))))))
(assert (forall ((var0 Int) (var1 Int) (var2 Int) (var3 Int) (var4 Int) (var5 Int) (var6 Int)) (not (and (inv_main19 var6 var5 var4 var3 var2 var1 var0) (not (= var0 (* var5 var4)))))))
(assert (forall ((var0 Int) (var1 Int) (var2 Int) (var3 Int) (var4 Int) (var5 Int) (var6 Int)) (not (and (inv_main39 var6 var5 var4 var3 var2 var1 var0) (not (= (* var3 var2) 0))))))
(check-sat)
